 200 12 
 46 25 56 99 77 47 78 90 20 8 65 99 
 
 12 
 1 2 3 4 5 6 7 8 9 10 11 12 
 3 
 4 5 9 
 6 
 1 4 7 8 9 10 
 10 
 1 2 3 4 5 6 7 8 9 10 
 11 
 1 2 3 4 5 6 7 8 9 10 12 
 4 
 2 7 8 9 
 10 
 2 4 5 6 7 8 9 10 11 12 
 5 
 2 8 9 10 11 
 8 
 1 2 3 4 7 8 9 11 
 12 
 1 2 3 4 5 6 7 8 9 10 11 12 
 10 
 1 2 3 4 5 7 8 9 10 12 
 6 
 1 3 5 6 9 10 
 10 
 1 2 3 4 5 8 9 10 11 12 
 7 
 1 2 3 4 7 9 12 
 9 
 1 2 3 4 6 7 8 11 12 
 7 
 1 3 4 6 7 9 12 
 12 
 1 2 3 4 5 6 7 8 9 10 11 12 
 6 
 4 5 6 9 11 12 
 5 
 4 7 8 10 11 
 6 
 2 6 7 8 9 10 
 3 
 1 8 12 
 8 
 1 2 4 6 8 10 11 12 
 3 
 2 3 12 
 8 
 1 3 5 6 8 10 11 12 
 9 
 1 2 4 5 6 7 9 10 11 
 10 
 2 3 4 6 7 8 9 10 11 12 
 8 
 1 3 5 6 7 8 9 11 
 5 
 1 4 5 7 9 
 8 
 1 2 3 4 5 7 11 12 
 8 
 1 4 5 7 9 10 11 12 
 10 
 1 2 3 4 6 7 9 10 11 12 
 9 
 1 2 3 5 7 8 9 10 11 
 2 
 9 12 
 12 
 1 2 3 4 5 6 7 8 9 10 11 12 
 7 
 1 2 3 4 7 8 12 
 12 
 1 2 3 4 5 6 7 8 9 10 11 12 
 7 
 3 5 8 9 10 11 12 
 10 
 1 2 4 5 6 8 9 10 11 12 
 6 
 1 3 4 6 7 9 
 2 
 1 5 
 12 
 1 2 3 4 5 6 7 8 9 10 11 12 
 7 
 1 4 6 8 10 11 12 
 8 
 1 2 3 4 8 9 10 12 
 8 
 1 2 3 4 6 8 9 10 
 2 
 1 8 
 12 
 1 2 3 4 5 6 7 8 9 10 11 12 
 8 
 1 2 5 6 7 8 10 12 
 9 
 1 2 5 6 7 8 9 10 11 
 10 
 1 2 4 5 6 7 8 9 10 11 
 2 
 7 9 
 3 
 1 5 7 
 6 
 4 8 9 10 11 12 
 5 
 1 3 5 8 11 
 7 
 2 7 8 9 10 11 12 
 5 
 1 2 3 7 11 
 6 
 2 3 5 6 9 12 
 6 
 1 2 4 6 7 9 
 4 
 2 3 11 12 
 4 
 4 8 10 11 
 11 
 1 2 3 4 5 7 8 9 10 11 12 
 12 
 1 2 3 4 5 6 7 8 9 10 11 12 
 4 
 4 7 10 12 
 10 
 1 2 3 4 5 6 7 8 9 10 
 2 
 4 9 
 11 
 1 2 3 4 6 7 8 9 10 11 12 
 7 
 3 4 6 7 8 11 12 
 9 
 1 3 5 6 7 8 9 10 12 
 2 
 8 10 
 10 
 2 3 4 5 6 7 8 10 11 12 
 6 
 2 4 5 8 11 12 
 7 
 1 3 5 6 8 9 10 
 6 
 3 4 6 8 9 10 
 9 
 1 3 4 5 7 8 9 10 12 
 10 
 1 2 3 4 5 7 8 10 11 12 
 12 
 1 2 3 4 5 6 7 8 9 10 11 12 
 4 
 1 9 10 11 
 8 
 1 2 3 4 6 8 10 11 
 6 
 1 2 4 5 10 12 
 7 
 2 3 6 8 9 10 12 
 10 
 1 3 4 5 6 8 9 10 11 12 
 6 
 2 3 4 7 10 12 
 12 
 1 2 3 4 5 6 7 8 9 10 11 12 
 8 
 1 4 5 6 8 9 10 12 
 9 
 1 2 3 4 6 8 10 11 12 
 8 
 1 3 4 6 8 9 10 11 
 9 
 3 4 5 6 7 8 9 10 12 
 3 
 2 8 12 
 3 
 1 2 4 
 12 
 1 2 3 4 5 6 7 8 9 10 11 12 
 7 
 1 2 4 6 8 10 11 
 10 
 1 2 3 4 6 7 8 9 10 12 
 2 
 5 12 
 9 
 1 2 3 4 5 8 9 11 12 
 11 
 1 2 3 4 5 6 8 9 10 11 12 
 6 
 2 6 8 9 10 12 
 6 
 1 2 4 5 6 10 
 6 
 2 3 4 6 8 11 
 7 
 1 2 5 7 8 9 12 
 9 
 1 2 3 7 8 9 10 11 12 
 8 
 4 5 6 7 8 9 10 11 
 10 
 1 3 4 5 6 7 9 10 11 12 
 5 
 1 5 8 9 12 
 10 
 1 2 4 5 6 7 8 10 11 12 
 10 
 1 2 3 4 5 7 8 9 10 11 
 3 
 1 4 5 
 6 
 3 6 7 8 11 12 
 5 
 1 2 4 8 11 
 4 
 4 6 7 12 
 9 
 1 2 3 4 5 6 7 11 12 
 12 
 1 2 3 4 5 6 7 8 9 10 11 12 
 7 
 2 3 4 5 8 10 12 
 10 
 1 2 3 4 5 6 7 8 10 11 
 5 
 1 3 6 8 9 
 4 
 1 4 10 12 
 4 
 1 4 7 9 
 7 
 1 2 4 5 7 8 12 
 9 
 1 3 4 5 6 7 9 10 11 
 9 
 1 2 3 4 5 7 9 10 11 
 8 
 3 5 7 8 9 10 11 12 
 4 
 2 3 6 11 
 3 
 3 5 8 
 9 
 1 2 5 6 7 8 9 10 12 
 11 
 1 2 3 4 6 7 8 9 10 11 12 
 4 
 2 8 9 11 
 5 
 2 4 7 10 11 
 8 
 1 2 4 5 7 8 10 12 
 4 
 4 5 8 9 
 2 
 5 11 
 4 
 2 3 7 12 
 4 
 2 5 6 9 
 5 
 3 4 7 9 12 
 9 
 1 2 4 5 6 7 9 11 12 
 2 
 6 8 
 8 
 1 4 5 6 9 10 11 12 
 4 
 5 7 8 10 
 2 
 5 7 
 8 
 2 4 6 7 8 9 10 12 
 2 
 3 6 
 2 
 10 12 
 4 
 4 7 10 11 
 11 
 1 2 3 4 5 7 8 9 10 11 12 
 6 
 2 4 6 8 11 12 
 3 
 5 8 10 
 6 
 2 5 6 7 9 10 
 3 
 6 7 8 
 6 
 2 5 8 9 10 12 
 10 
 1 2 3 5 6 8 9 10 11 12 
 3 
 2 8 12 
 6 
 1 3 7 8 10 12 
 8 
 1 2 3 5 8 9 11 12 
 2 
 8 9 
 7 
 2 4 5 6 7 8 11 
 6 
 1 3 5 7 8 10 
 10 
 1 2 3 4 5 6 7 8 9 11 
 9 
 3 4 5 6 7 8 9 10 11 
 6 
 1 3 5 6 8 10 
 3 
 6 7 11 
 8 
 1 2 3 4 6 9 10 12 
 9 
 2 3 4 5 7 8 9 11 12 
 7 
 1 4 5 6 7 9 10 
 4 
 3 4 5 11 
 9 
 1 2 3 4 5 7 8 10 12 
 9 
 1 2 3 4 5 6 8 9 10 
 9 
 1 2 3 4 5 8 9 11 12 
 4 
 1 2 6 10 
 3 
 4 6 12 
 11 
 1 2 3 4 5 6 7 8 9 10 12 
 3 
 1 5 11 
 9 
 2 4 5 7 8 9 10 11 12 
 6 
 2 4 5 9 11 12 
 11 
 1 2 3 4 5 6 7 8 9 10 12 
 6 
 1 2 6 7 8 11 
 8 
 1 2 3 4 5 10 11 12 
 6 
 1 3 6 7 8 9 
 10 
 2 3 4 6 7 8 9 10 11 12 
 10 
 2 3 4 5 6 7 8 9 10 12 
 12 
 1 2 3 4 5 6 7 8 9 10 11 12 
 11 
 1 2 3 4 5 6 7 8 9 10 12 
 8 
 1 3 4 5 7 9 10 11 
 12 
 1 2 3 4 5 6 7 8 9 10 11 12 
 7 
 1 2 4 5 7 8 10 
 10 
 1 3 4 5 6 7 9 10 11 12 
 12 
 1 2 3 4 5 6 7 8 9 10 11 12 
 9 
 1 2 3 4 5 6 8 10 11 
 5 
 2 4 7 10 12 
 10 
 1 3 4 5 6 7 8 9 11 12 
 4 
 4 6 7 9 
 5 
 3 5 8 9 10 
 7 
 2 3 6 7 8 9 11 
 9 
 1 2 3 5 7 8 9 10 11 
 2 
 7 9 
 4 
 1 3 11 12 
 2 
 7 9 
 5 
 2 3 4 8 9 
 7 
 1 3 4 7 8 9 10 
 2 
 8 10 
 8 
 2 4 6 7 8 9 11 12 
 12 
 1 2 3 4 5 6 7 8 9 10 11 12 
 9 
 1 2 3 5 6 9 10 11 12 
 8 
 2 3 4 6 7 8 11 12 
 